============================[ Problem Statistics ]=============================|                                                                             ||  Number of variables:          4242                                         ||  Number of clauses:            9857                                         ||  Parse time:                   0.27 s                                       ||                                                                             |============================[ Search Statistics ]==============================| Conflicts |          ORIGINAL         |          LEARNT          | Progress ||           |    Vars  Clauses Literals |    Limit  Clauses Lit/Cl |          |===============================================================================|       100 |    1591     6062   392043 |     2222      100     53 | 62.501 % |===============================================================================restarts              : 2conflicts             : 151            (362 /sec)decisions             : 321            (0.00 % random) (770 /sec)propagations          : 9959           (23882 /sec)conflict literals     : 9787           (95.40 % deleted)CPU time              : 0.417 sSATISFIABLE